
(set-logic ALL) 

(declare-datatype MyList ((Nil) (Cons (head Real) (tail MyList)) )) 
(declare-fun l0 () MyList) 
(declare-fun l1 () MyList) 
(declare-fun l2 () MyList) 
(declare-fun l3 () MyList) 
(declare-fun i0 () Real) 
(declare-fun i1 () Real) 
(assert (is-Cons l1) )
(assert (not (is-Cons Nil)) )
(assert (not (= l0 Nil)) )
(assert (not (= l2 Nil)) )
(assert (or (is-Nil Nil) (= l1 l3) (= l3 Nil) (= l1 l0)) )
(assert (is-Nil Nil) )
(assert (and (is-Cons l1) (= l0 Nil)) )
(assert (and (= l2 Nil) (= l2 Nil) (= l3 Nil)) )
(check-sat)
